10 15
28 82 96 70 44 43 38 7 10 77 
78 31 17 92 90 38 42 91 37 47 
77 56 81 68 41 66 20 2 12 31 
96 15 49 94 41 1 25 37 18 69 
79 39 43 78 43 65 97 11 85 50 
99 52 20 72 48 26 90 36 29 83 
95 28 69 54 36 88 34 76 25 87 
50 62 94 85 50 1 2 23 91 90 
5 29 24 38 17 3 89 8 78 5 
10 26 31 16 8 9 85 3 80 89 
32 84 53 20 11 1 8 47 32 99 
66 24 73 9 40 37 9 25 4 80 
80 64 46 83 8 6 93 65 11 29 
9 90 11 91 77 23 98 73 82 20 
38 52 77 82 32 17 56 58 79 1 
